; input_dword_5
(declare-fun f () (_ BitVec 32))
(let ((?x2610 (concat (bvnot ((_ extract 19 19) (bvadd (_ bv216130 20) ((_ extract 19 0) f)))) ((_ extract 18 18) (bvadd (_ bv216130 20) ((_ extract 19 0) f))) (bvnot ((_ extract 17 10) (bvadd (_ bv216130 20) ((_ extract 19 0) f)))) ((_ extract 9 9) (bvadd (_ bv216130 20) ((_ extract 19 0) f))) (bvnot ((_ extract 8 7) (bvadd (_ bv216130 20) ((_ extract 19 0) f)))) ((_ extract 6 5) (bvadd (_ bv216130 20) ((_ extract 19 0) f))) (bvnot ((_ extract 4 3) (bvadd (_ bv216130 20) ((_ extract 19 0) f)))) ((_ extract 2 1) (bvadd (_ bv216130 20) ((_ extract 19 0) f))) (bvnot ((_ extract 0 0) f)) ((_ extract 31 29) (bvadd (_ bv3609414722 32) f)) (bvnot ((_ extract 28 27) (bvadd (_ bv3609414722 32) f))) ((_ extract 26 26) (bvadd (_ bv3609414722 32) f)) (bvnot ((_ extract 25 25) (bvadd (_ bv52644930 26) ((_ extract 25 0) f)))) ((_ extract 24 20) (bvadd (_ bv52644930 26) ((_ extract 25 0) f))))))
(let ((?x2589 (bvadd (_ bv4294967291 32) ?x2610)))
(let ((?x2568 (concat ((_ extract 26 3) ?x2589) (bvnot ((_ extract 2 2) ?x2589)) ((_ extract 1 1) ?x2589) (bvnot (bvadd (_ bv1 1) ((_ extract 20 20) (bvadd (_ bv52644930 26) ((_ extract 25 0) f))))) ((_ extract 31 27) ?x2589))))
(let ((?x2605 (bvadd (_ bv10 32) ?x2568)))
(let ((?x2572 (concat ((_ extract 29 3) ?x2605) (bvnot ((_ extract 2 2) ?x2605)) ((_ extract 1 1) ?x2605) (bvnot ((_ extract 27 27) ?x2589)) ((_ extract 31 30) ?x2605))))
(let ((?x2608 (concat ((_ extract 3 3) ?x2605) (bvnot ((_ extract 2 2) ?x2605)) ((_ extract 1 1) ?x2605) (bvnot ((_ extract 27 27) ?x2589)) ((_ extract 31 30) ?x2605))))
(let ((?x2588 (bvadd (_ bv5 32) (concat (bvadd (_ bv5 6) ?x2608) ((_ extract 31 6) (bvadd (_ bv5 32) ?x2572))))))
(let ((?x2615 (concat (bvnot ((_ extract 13 3) ?x2588)) ((_ extract 2 2) ?x2588) (bvnot ((_ extract 1 1) ?x2588)) (bvadd (_ bv1 1) ((_ extract 6 6) (bvadd (_ bv5 32) ?x2572))) (bvnot ((_ extract 31 14) ?x2588)))))
(let ((?x2594 (bvadd (_ bv1053454115 32) ?x2615)))
(let ((?x2659 (concat (bvnot ((_ extract 31 31) ?x2594)) ((_ extract 30 25) ?x2594) (bvnot ((_ extract 24 24) ?x2594)) ((_ extract 23 18) ?x2594) (bvnot ((_ extract 17 14) ?x2594)) ((_ extract 13 13) ?x2594) (bvnot ((_ extract 12 12) ?x2594)) ((_ extract 11 7) ?x2594) (bvnot ((_ extract 6 6) ?x2594)) ((_ extract 5 2) ?x2594) (bvnot ((_ extract 1 1) ?x2594)) (bvnot (bvadd (_ bv1 1) (bvnot ((_ extract 14 14) ?x2588)))))))
(let ((?x2653 (concat ((_ extract 5 2) ?x2594) (bvnot ((_ extract 1 1) ?x2594)) (bvnot (bvadd (_ bv1 1) (bvnot ((_ extract 14 14) ?x2588)))))))
(let ((?x2620 (concat (bvadd (_ bv5 6) (bvnot (bvadd (_ bv59 6) ?x2653))) ((_ extract 31 6) (bvadd (_ bv5 32) (bvnot (bvadd (_ bv4294967291 32) ?x2659)))))))
(let ((?x2617 (bvadd (_ bv4294967291 32) ?x2620)))
(let ((?x2401 (concat ((_ extract 31 3) ?x2617) (bvnot ((_ extract 2 2) ?x2617)) ((_ extract 1 1) ?x2617) (bvnot (bvadd (_ bv1 1) ((_ extract 6 6) (bvadd (_ bv5 32) (bvnot (bvadd (_ bv4294967291 32) ?x2659)))))))))
(let ((?x2647 (bvadd (_ bv5 32) ?x2401)))
(let ((?x2663 (concat ((_ extract 5 3) ?x2617) (bvnot ((_ extract 2 2) ?x2617)) ((_ extract 1 1) ?x2617) (bvnot (bvadd (_ bv1 1) ((_ extract 6 6) (bvadd (_ bv5 32) (bvnot (bvadd (_ bv4294967291 32) ?x2659)))))))))
(let ((?x2685 (concat ((_ extract 25 6) ?x2647) (bvadd (_ bv5 6) ?x2663) ((_ extract 31 29) ?x2647) (bvnot ((_ extract 28 28) ?x2647)) ((_ extract 27 27) ?x2647) (bvnot ((_ extract 26 26) ?x2647)))))
(let ((?x2675 (concat (bvadd (_ bv3 2) (concat ((_ extract 27 27) ?x2647) (bvnot ((_ extract 26 26) ?x2647)))) ((_ extract 31 2) (bvadd (_ bv121107091 32) ?x2685)))))
(let ((?x2578 (bvadd (_ bv4294967291 32) ?x2675)))
(let ((?x2678 (bvadd (_ bv3499560047 32) (concat (bvadd (_ bv1 1) ((_ extract 2 2) (bvadd (_ bv121107091 32) ?x2685))) ((_ extract 31 1) ?x2578)))))
(let ((?x2736 (bvadd (_ bv1 1) ((_ extract 16 16) ?x2678))))
(let ((?x2764 (concat (bvnot ((_ extract 15 14) (bvadd (_ bv3183 16) ((_ extract 16 1) ?x2578)))) ((_ extract 13 12) (bvadd (_ bv3183 16) ((_ extract 16 1) ?x2578))) (bvnot ((_ extract 11 10) (bvadd (_ bv3183 16) ((_ extract 16 1) ?x2578)))) ((_ extract 9 7) (bvadd (_ bv3183 16) ((_ extract 16 1) ?x2578))) (bvnot ((_ extract 6 6) (bvadd (_ bv3183 16) ((_ extract 16 1) ?x2578)))) ((_ extract 5 4) (bvadd (_ bv3183 16) ((_ extract 16 1) ?x2578))) (bvnot ((_ extract 3 1) (bvadd (_ bv3183 16) ((_ extract 16 1) ?x2578)))) (bvadd (_ bv1 1) ((_ extract 1 1) ?x2578)) ((_ extract 31 31) ?x2678) (bvnot ((_ extract 30 30) ?x2678)) ((_ extract 29 29) ?x2678) (bvnot ((_ extract 28 26) ?x2678)) ((_ extract 25 25) ?x2678) (bvnot ((_ extract 24 23) ?x2678)) ((_ extract 22 21) ?x2678) (bvnot ((_ extract 20 20) ?x2678)) ((_ extract 19 19) ?x2678) (bvnot ((_ extract 18 18) ?x2678)) ((_ extract 17 16) ?x2678))))
(let ((?x2670 (bvadd (_ bv1942396743 32) ?x2764)))
(let ((?x2762 (concat ((_ extract 31 31) ?x2670) (bvnot ((_ extract 30 30) ?x2670)) ((_ extract 29 28) ?x2670) (bvnot ((_ extract 27 26) ?x2670)) ((_ extract 25 24) ?x2670) (bvnot ((_ extract 23 22) ?x2670)) ((_ extract 21 16) ?x2670) (bvnot ((_ extract 15 14) ?x2670)) ((_ extract 13 13) ?x2670) (bvnot ((_ extract 12 10) ?x2670)) ((_ extract 9 6) ?x2670) (bvnot ((_ extract 5 5) ?x2670)) ((_ extract 4 3) ?x2670) (bvnot ((_ extract 2 1) ?x2670)) ?x2736)))
(let ((?x2702 (bvadd (_ bv10 32) ?x2762)))
(let ((?x2776 (concat (bvnot ((_ extract 31 31) ?x2702)) ((_ extract 30 27) ?x2702) (bvnot ((_ extract 26 26) ?x2702)) ((_ extract 25 24) ?x2702) (bvnot ((_ extract 23 23) ?x2702)) ((_ extract 22 22) ?x2702) (bvnot ((_ extract 21 20) ?x2702)) ((_ extract 19 18) ?x2702) (bvnot ((_ extract 17 17) ?x2702)) ((_ extract 16 13) ?x2702) (bvnot ((_ extract 12 11) ?x2702)) ((_ extract 10 7) ?x2702) (bvnot ((_ extract 6 4) ?x2702)) ((_ extract 3 3) ?x2702) (bvnot ((_ extract 2 1) ?x2702)) ?x2736)))
(let ((?x2766 (bvadd (_ bv3475663250 32) (bvnot (bvadd (_ bv5 32) ?x2776)))))
(let ((?x2774 (bvnot (bvadd (_ bv2 3) (bvnot (bvadd (_ bv5 3) (concat (bvnot ((_ extract 2 1) ?x2702)) ?x2736)))))))
(let ((?x2723 (concat ?x2774 (bvnot ((_ extract 31 30) ?x2766)) ((_ extract 29 27) ?x2766) (bvnot ((_ extract 26 24) ?x2766)) ((_ extract 23 22) ?x2766) (bvnot ((_ extract 21 17) ?x2766)) ((_ extract 16 9) ?x2766) (bvnot ((_ extract 8 8) ?x2766)) ((_ extract 7 7) ?x2766) (bvnot ((_ extract 6 6) ?x2766)) ((_ extract 5 3) ?x2766))))
(let ((?x2779 (bvadd (_ bv2279418821 32) ?x2723)))
(let ((?x2772 (concat ((_ extract 23 22) ?x2766) (bvnot ((_ extract 21 17) ?x2766)) ((_ extract 16 9) ?x2766) (bvnot ((_ extract 8 8) ?x2766)) ((_ extract 7 7) ?x2766) (bvnot ((_ extract 6 6) ?x2766)) ((_ extract 5 3) ?x2766))))
(let ((?x2827 (concat ((_ extract 29 24) ?x2779) (bvnot ((_ extract 23 23) ?x2779)) ((_ extract 22 22) ?x2779) (bvnot ((_ extract 21 21) ?x2779)) ((_ extract 20 1) (bvadd (_ bv1911749 21) ?x2772)) (bvnot (bvadd (_ bv1 1) ((_ extract 3 3) ?x2766))) ((_ extract 31 31) ?x2779) (bvnot ((_ extract 30 30) ?x2779)))))
(let ((?x2790 (concat ((_ extract 24 24) ?x2779) (bvnot ((_ extract 23 23) ?x2779)) ((_ extract 22 22) ?x2779) (bvnot ((_ extract 21 21) ?x2779)) ((_ extract 20 1) (bvadd (_ bv1911749 21) ?x2772)) (bvnot (bvadd (_ bv1 1) ((_ extract 3 3) ?x2766))) ((_ extract 31 31) ?x2779) (bvnot ((_ extract 30 30) ?x2779)))))
(let ((?x2799 (concat ((_ extract 30 27) (bvadd (_ bv4294967286 32) ?x2827)) (bvadd (_ bv134217718 27) ?x2790) ((_ extract 31 31) (bvadd (_ bv4294967286 32) ?x2827)))))
(let ((?x2789 (bvadd (_ bv371792465 32) ?x2799)))
(let ((?x2909 (bvnot ((_ extract 4 3) ?x2789))))
(let ((?x2903 ((_ extract 5 5) ?x2789)))
(let ((?x2901 (bvnot ((_ extract 6 6) ?x2789))))
(let ((?x2895 (concat ((_ extract 2 1) ?x2789) (bvnot (bvadd (_ bv1 1) ((_ extract 31 31) (bvadd (_ bv4294967286 32) ?x2827)))) ((_ extract 31 30) ?x2789) (bvnot ((_ extract 29 26) ?x2789)) ((_ extract 25 25) ?x2789) (bvnot ((_ extract 24 24) ?x2789)) ((_ extract 23 23) ?x2789) (bvnot ((_ extract 22 21) ?x2789)) ((_ extract 20 20) ?x2789) (bvnot ((_ extract 19 19) ?x2789)) ((_ extract 18 16) ?x2789) (bvnot ((_ extract 15 15) ?x2789)) ((_ extract 14 14) ?x2789) (bvnot ((_ extract 13 13) ?x2789)) ((_ extract 12 10) ?x2789) (bvnot ((_ extract 9 8) ?x2789)) ((_ extract 7 7) ?x2789) ?x2901 ?x2903 ?x2909)))
(let ((?x2806 (bvadd (_ bv422262738 32) ?x2895)))
(let ((?x2862 (concat (bvnot ((_ extract 19 19) ?x2789)) ((_ extract 18 16) ?x2789) (bvnot ((_ extract 15 15) ?x2789)) ((_ extract 14 14) ?x2789) (bvnot ((_ extract 13 13) ?x2789)) ((_ extract 12 10) ?x2789) (bvnot ((_ extract 9 8) ?x2789)) ((_ extract 7 7) ?x2789) ?x2901 ?x2903 ?x2909)))
(let ((?x2913 (bvadd (_ bv3059648122 32) (concat (bvadd (_ bv79826 17) ?x2862) ((_ extract 31 17) ?x2806)))))
(let ((?x2853 (bvadd (_ bv427642 19) (concat (bvadd (_ bv2 4) (concat ?x2901 ?x2903 ?x2909)) ((_ extract 31 17) ?x2806)))))
(concat (bvnot ((_ extract 28 27) ?x2913)) ((_ extract 26 26) ?x2913) (bvnot ((_ extract 25 25) ?x2913)) ((_ extract 24 24) ?x2913) (bvnot ((_ extract 23 23) ?x2913)) ((_ extract 22 22) ?x2913) (bvnot ((_ extract 21 21) ?x2913)) (bvnot ((_ extract 20 20) ?x2913)) ((_ extract 19 19) ?x2913) ((_ extract 18 18) ?x2853) (bvnot ((_ extract 17 17) ?x2853)) ((_ extract 16 12) ?x2853) (bvnot ((_ extract 11 8) ?x2853)) ((_ extract 7 7) ?x2853) (bvnot ((_ extract 6 6) ?x2853)) ((_ extract 5 4) ?x2853) (bvnot ((_ extract 3 3) (bvadd (_ bv10 4) ((_ extract 20 17) ?x2806)))) (bvnot (bvadd (_ bv2 3) ((_ extract 19 17) ?x2806))) (bvnot ((_ extract 31 31) ?x2913)) ((_ extract 30 30) ?x2913) (bvnot ((_ extract 29 29) ?x2913))))))))))))))))))))))))))))))))))))))))))))))